
  12    4
  10   10   10   10

   0   0   0   0   0   3 2 3 7 
   5  10  10  10  10   2 5 4 
   8  10  10  10  10   2 6 5 
  10  10  10  10  10   2 8 6 
   9  10  10  10  10   3 10 9 8 
   7  10  10  10  10   2 10 9 
   9  10  10  10  10   2 11 8 
   4  10  10  10  10   1 12
   3  10  10  10  10   1 12
   8  10  10  10  10   1 12
   1  10  10  10  10   1 12
   0   0   0   0   0   0 
